119 48 011 1
1
540 113 1
506 114 1
501 115 1
445 116 1
397 117 1
470 118 1
431 119 1
491 108 1
425 109 1
438 110 1
421 111 1
470 112 1
355 113 1
633 114 1
337 115 1
407 116 1
491 117 1
371 118 1
421 119 1
419 108 1
401 109 1
445 110 1
340 111 1
347 112 1
510 113 1
392 114 1
373 115 1
472 116 1
475 117 1
562 118 1
550 119 1
585 108 1
411 109 1
403 110 1
508 111 1
387 112 1
482 113 1
379 114 1
434 115 1
388 116 1
437 117 1
414 118 1
499 119 1
420 108 1
603 109 1
528 110 1
408 111 1
335 112 1
1
1
1
1
1
1
1
1
1
1
1
1
1
1
1
1
1
1
1
1
1
1
1
1
1
1
1
1
1
1
1
1
1
1
1
1
1
1
1
1
1
1
1
1
1
1
1
1
1
1
1
1
1
1
1
1
1
1
1 9 490 21 418 33 584 45 419
1 10 424 22 400 34 410 46 602
1 11 437 23 444 35 402 47 527
1 12 420 24 339 36 507 48 407
1 13 469 25 346 37 386 49 334
1 2 539 14 354 26 509 38 481
1 3 505 15 632 27 391 39 378
1 4 500 16 336 28 372 40 433
1 5 444 17 406 29 471 41 387
1 6 396 18 490 30 474 42 436
1 7 469 19 370 31 561 43 413
1 8 430 20 420 32 549 44 498
